JulietBench/Juliet_Based_Patch_Bench/linux/CWE-189-Numeric-Errors/CVE_2015_5707_451a2886b6bf90e2fb378f7c46c655450fb96e81/Resultsg_start_req_Snippet_patch2EQ.smt2
; benchmark generated from python API
(set-info :status unknown)
(declare-fun R () (_ BitVec 32))
(declare-fun rdi () (_ BitVec 64))
(assert
 (let (($x51 (= (_ bv8 32) R)))
 (let ((?x6 ((_ extract 31 0) rdi)))
 (let (($x10 (= (_ bv0 32) ?x6)))
 (let (($x52 (and $x10 $x51)))
 (let ((?x48 (bvmul (_ bv8 32) ?x6)))
 (let (($x7 (= R ?x48)))
 (let (($x36 (and (distinct (_ bv0 32) ?x6) true)))
 (let (($x49 (and $x36 $x7)))
 (let (($x53 (or $x49 $x52)))
 (and $x53 $x51)))))))))))
(check-sat)
